(set-logic QF_NRA)
(declare-fun v0 () Real)
(declare-fun th0 () Real)
(declare-fun zp_0_0 () Real)
(declare-fun zq_0_0 () Real)
(declare-fun zp_0_2 () Real)
(declare-fun zq_0_2 () Real)
(declare-fun v2 () Real)
(declare-fun th2 () Real)
(declare-fun v5 () Real)
(declare-fun th5 () Real)
(declare-fun v7 () Real)
(declare-fun th7 () Real)
(declare-fun v17 () Real)
(declare-fun th17 () Real)
(declare-fun v18 () Real)
(declare-fun th18 () Real)
(declare-fun v19 () Real)
(declare-fun th19 () Real)
(declare-fun zp_19_0 () Real)
(declare-fun zq_19_0 () Real)
(declare-fun zp_19_19 () Real)
(declare-fun zq_19_19 () Real)
(assert (<= v0 2))
(assert (>= v0 0))
(assert (<= th0 4))
(assert (>= th0 -4))
(assert (<= zp_0_0 3))
(assert (>= zp_0_0 -3))
(assert (<= zq_0_0 3))
(assert (>= zq_0_0 -3))
(assert (<= zp_0_2 3))
(assert (>= zp_0_2 -3))
(assert (<= zq_0_2 3))
(assert (>= zq_0_2 -3))
(assert (<= v2 2))
(assert (>= v2 0))
(assert (<= th2 4))
(assert (>= th2 -4))
(assert (<= v5 2))
(assert (>= v5 0))
(assert (<= th5 4))
(assert (>= th5 -4))
(assert (<= v7 2))
(assert (>= v7 0))
(assert (<= th7 4))
(assert (>= th7 -4))
(assert (<= v17 2))
(assert (>= v17 0))
(assert (<= th17 4))
(assert (>= th17 -4))
(assert (<= v18 2))
(assert (>= v18 0))
(assert (<= th18 4))
(assert (>= th18 -4))
(assert (<= v19 2))
(assert (>= v19 0))
(assert (<= th19 4))
(assert (>= th19 -4))
(assert (<= zp_19_0 3))
(assert (>= zp_19_0 -3))
(assert (<= zq_19_0 3))
(assert (>= zq_19_0 -3))
(assert (<= zp_19_19 3))
(assert (>= zp_19_19 -3))
(assert (<= zq_19_19 3))
(assert (>= zq_19_19 -3))
(assert (and (and (and (and (and (and true (and (= zp_19_19 (* v19 (+ (+ (+ 0 (* v0 (- (- 0 (* 0.182815 (cos (- th19 th0)))) (* 0.115948 (sin (- th19 th0)))))) (* v17 (- (- 0 (* 0.051548 (cos (- th19 th17)))) (* 0.069744 (sin (- th19 th17)))))) (* v18 (- (- 0 (* 0.164914 (cos (- th19 th18)))) (* 0.056993 (sin (- th19 th18)))))))) (= zq_19_19 (* v19 (+ (+ (+ 0 (* v0 (- (* 0.115948 (cos (- th19 th0))) (* 0.182815 (sin (- th19 th0)))))) (* v17 (- (* 0.069744 (cos (- th19 th17))) (* 0.051548 (sin (- th19 th17)))))) (* v18 (- (* 0.056993 (cos (- th19 th18))) (* 0.164914 (sin (- th19 th18)))))))))) (and (= zp_19_19 1) (= zq_19_19 1))) (and (= zp_19_0 (- (- (* (^ v19 2) 0.182815) (* v19 (* v0 (* 0.182815 (cos (- th19 th0)))))) (* v19 (* v0 (* 0.115948 (sin (- th19 th0))))))) (= zq_19_0 (- (- (- 0 (* (^ v19 2) 0.182815)) (* v19 (* v0 (* 0.115948 (cos (- th19 th0)))))) (* v19 (* v0 (* 0.182815 (sin (- th19 th0))))))))) (and (= zp_0_0 (* v0 (+ (+ (+ (+ 0 (* v2 (- (- 0 (* 0.013827 (cos (- th0 th2)))) (* 0.171341 (sin (- th0 th2)))))) (* v5 (- (- 0 (* 0.187801 (cos (- th0 th5)))) (* 0.075068 (sin (- th0 th5)))))) (* v7 (- (- 0 (* 0.118594 (cos (- th0 th7)))) (* 0.095421 (sin (- th0 th7)))))) (* v19 (- (- 0 (* 0.182815 (cos (- th0 th19)))) (* 0.115948 (sin (- th0 th19)))))))) (= zq_0_0 (* v0 (+ (+ (+ (+ 0 (* v2 (- (* 0.171341 (cos (- th0 th2))) (* 0.013827 (sin (- th0 th2)))))) (* v5 (- (* 0.075068 (cos (- th0 th5))) (* 0.187801 (sin (- th0 th5)))))) (* v7 (- (* 0.095421 (cos (- th0 th7))) (* 0.118594 (sin (- th0 th7)))))) (* v19 (- (* 0.115948 (cos (- th0 th19))) (* 0.182815 (sin (- th0 th19)))))))))) (and (= zp_0_0 1) (= zq_0_0 1))) (and (= zp_0_2 (- (- (* (^ v0 2) 0.013827) (* v0 (* v2 (* 0.013827 (cos (- th0 th2)))))) (* v0 (* v2 (* 0.171341 (sin (- th0 th2))))))) (= zq_0_2 (- (- (- 0 (* (^ v0 2) 0.013827)) (* v0 (* v2 (* 0.171341 (cos (- th0 th2)))))) (* v0 (* v2 (* 0.013827 (sin (- th0 th2))))))))))
(check-sat)
(exit)
